nodes = 128;
edges = 250;
starts = [1, 1, 2, 3, 4, 4, 4, 5, 5, 5, 6, 7, 8, 9, 10, 10, 11, 11, 12, 13, 13, 13, 14, 14, 15, 15, 16, 16, 17, 17, 18, 18, 19, 19, 20, 20, 21, 21, 22, 23, 23, 24, 24, 25, 26, 26, 27, 27, 28, 28, 29, 29, 30, 31, 31, 32, 33, 33, 34, 35, 36, 36, 37, 37, 38, 38, 39, 39, 39, 40, 40, 41, 42, 43, 43, 43, 44, 45, 46, 47, 47, 48, 48, 49, 50, 51, 52, 52, 53, 54, 54, 55, 55, 55, 56, 56, 57, 57, 57, 58, 58, 58, 59, 59, 59, 60, 60, 60, 61, 62, 62, 62, 63, 63, 63, 64, 64, 64, 65, 65, 65, 66, 66, 66, 67, 67, 67, 68, 68, 68, 69, 69, 69, 70, 71, 72, 72, 72, 72, 73, 73, 74, 74, 75, 76, 76, 77, 77, 78, 78, 79, 79, 79, 80, 80, 81, 82, 82, 83, 84, 84, 85, 86, 86, 86, 87, 87, 87, 88, 88, 89, 90, 91, 91, 91, 92, 92, 93, 93, 93, 94, 94, 95, 95, 96, 97, 97, 97, 98, 99, 99, 99, 100, 100, 100, 101, 102, 102, 103, 104, 104, 104, 105, 106, 106, 106, 107, 107, 108, 108, 109, 109, 110, 110, 111, 111, 111, 112, 112, 112, 113, 114, 114, 114, 115, 116, 117, 117, 117, 118, 118, 119, 119, 120, 120, 120, 121, 122, 122, 123, 123, 124, 125, 125, 125, 126, 127, 127, 128, 128];
ends = [87, 124, 109, 33, 17, 113, 114, 59, 69, 76, 35, 8, 47, 3, 6, 46, 49, 125, 38, 7, 79, 103, 40, 115, 63, 117, 49, 125, 4, 112, 43, 71, 18, 71, 21, 107, 59, 107, 20, 24, 39, 23, 39, 28, 81, 88, 42, 128, 96, 106, 44, 80, 79, 42, 128, 31, 10, 35, 99, 9, 83, 89, 36, 122, 37, 80, 23, 24, 56, 14, 27, 125, 84, 18, 53, 64, 73, 25, 13, 51, 127, 52, 77, 102, 45, 118, 16, 19, 11, 50, 56, 57, 60, 62, 39, 50, 55, 58, 65, 57, 59, 66, 5, 21, 58, 55, 62, 63, 72, 55, 60, 65, 15, 60, 67, 43, 87, 106, 57, 62, 66, 58, 65, 68, 63, 68, 117, 66, 67, 69, 5, 68, 117, 99, 48, 12, 61, 74, 123, 85, 99, 12, 73, 123, 5, 72, 2, 78, 52, 77, 13, 30, 108, 37, 83, 88, 29, 90, 112, 31, 32, 92, 4, 51, 82, 1, 54, 64, 119, 122, 17, 44, 93, 98, 114, 74, 75, 91, 97, 98, 43, 106, 82, 90, 94, 93, 100, 101, 101, 34, 70, 85, 97, 104, 105, 105, 8, 103, 13, 100, 111, 116, 116, 28, 45, 64, 20, 22, 7, 79, 2, 78, 14, 27, 104, 120, 121, 29, 80, 86, 114, 4, 86, 91, 40, 121, 15, 67, 69, 53, 87, 36, 89, 111, 124, 126, 126, 26, 110, 72, 76, 120, 16, 19, 41, 1, 86, 95, 26, 110];
weights = [1, 1, 1, 1, 1, 1, 1, 1, 1, 1, 1, 1, 1, 1, 1, 1, 1, 1, 1, 1, 1, 1, 1, 1, 1, 1, 1, 1, 1, 1, 1, 1, 1, 1, 1, 1, 1, 1, 1, 1, 1, 1, 1, 1, 1, 1, 1, 1, 1, 1, 1, 1, 1, 1, 1, 1, 1, 1, 1, 1, 1, 1, 1, 1, 1, 1, 1, 1, 1, 1, 1, 1, 1, 1, 1, 1, 1, 1, 1, 1, 1, 1, 1, 1, 1, 1, 1, 1, 1, 1, 1, 1, 1, 1, 1, 1, 1, 1, 1, 1, 1, 1, 1, 1, 1, 1, 1, 1, 1, 1, 1, 1, 1, 1, 1, 1, 1, 1, 1, 1, 1, 1, 1, 1, 1, 1, 1, 1, 1, 1, 1, 1, 1, 1, 1, 1, 1, 1, 1, 1, 1, 1, 1, 1, 1, 1, 1, 1, 1, 1, 1, 1, 1, 1, 1, 1, 1, 1, 1, 1, 1, 1, 1, 1, 1, 1, 1, 1, 1, 1, 1, 1, 1, 1, 1, 1, 1, 1, 1, 1, 1, 1, 1, 1, 1, 1, 1, 1, 1, 1, 1, 1, 1, 1, 1, 1, 1, 1, 1, 1, 1, 1, 1, 1, 1, 1, 1, 1, 1, 1, 1, 1, 1, 1, 1, 1, 1, 1, 1, 1, 1, 1, 1, 1, 1, 1, 1, 1, 1, 1, 1, 1, 1, 1, 1, 1, 1, 1, 1, 1, 1, 1, 1, 1, 1, 1, 1, 1, 1, 1];
start = 9;
end= 68;
p = [0, 0, 18, 0, 0, 0, 0, 0, 0, 0, 0, 0, 0, 17, 0, 0, 20, 0, 11, 0, 0, 0, 0, 0, 0, 0, 0, 0, 0, 0, 0, 0, 0, 0, 0, 0, 0, 0, 0, 0, 0, 0, 0, 0, 0, 0, 0, 0, 0, 0, 0, 0, 0, 0, 0, 0, 0, 0, 0, 0, 0, 0, 0, 0, 0, 0, 12, 0, 0, 19, 0, 0, 0, 0, 0, 0, 0, 0, 0, 0, 0, 0, 0, 0, 0, 0, 14, 0, 0, 0, 0, 0, 0, 0, 0, 0, 0, 0, 0, 0, 0, 0, 0, 0, 0, 0, 0, 0, 0, 0, 0, 10, 0, 0, 22, 0, 0, 0, 0, 0, 0, 0, 0, 0, 0, 0, 0, 0];
